proyfinal/src/viki/013/experimentInOfficeAgust.take6.output/6b623e38-0d80-421c-be3f-2472ff084cb5.als.out
Reading from standard input... Use '--help' for help.
============================[ Problem Statistics ]=============================
|                                                                             |
|  Number of variables:         87638                                         |
|  Number of clauses:          161767                                         |
|  Parse time:                   0.03 s                                       |
|                                                                             |
============================[ Search Statistics ]==============================
| Conflicts |          ORIGINAL         |          LEARNT          | Progress |
|           |    Vars  Clauses Literals |    Limit  Clauses Lit/Cl |          |
===============================================================================
|       100 |   62008   103772   259375 |    38049      100     20 | 29.245 % |
|       250 |   62008   103772   259375 |    41854      250     90 | 29.245 % |
|       475 |   62008   103772   259375 |    46040      475     76 | 29.245 % |
|       812 |   62008   103772   259375 |    50644      812     71 | 29.245 % |
|      1318 |   62008   103772   259375 |    55708     1318    114 | 29.245 % |
|      2077 |   43501    50204   128087 |    61279     1977     98 | 50.363 % |
===============================================================================
restarts              : 15
conflicts             : 3091           (9123 /sec)
decisions             : 10841          (0.00 % random) (31999 /sec)
propagations          : 4099764        (12100981 /sec)
conflict literals     : 220165         (32.75 % deleted)
Memory used           : 21.40 MB
CPU time              : 0.338796 s

UNSATISFIABLE
